models/n5k2_MTZ.lp
\ LP format - for model browsing. Use MPS format to capture full model detail.
Minimize
  3.209225080713865 x[0,1,1] + 3.209225080713865 x[0,1,2]
   + 12.65698929149337 x[0,2,1] + 12.65698929149337 x[0,2,2]
   + 6.428629089710375 x[0,3,1] + 6.428629089710375 x[0,3,2]
   + 18.25297697251097 x[0,4,1] + 18.25297697251097 x[0,4,2]
   + 15.03050653245813 x[0,5,1] + 15.03050653245813 x[0,5,2]
   + 11.77940529138823 x[1,2,1] + 11.77940529138823 x[1,2,2]
   + 5.562447359351713 x[1,3,1] + 5.562447359351713 x[1,3,2]
   + 16.08379167424117 x[1,4,1] + 16.08379167424117 x[1,4,2]
   + 13.50428083025146 x[1,5,1] + 13.50428083025146 x[1,5,2]
   + 3.209225080713865 x[1,6,1] + 3.209225080713865 x[1,6,2]
   + 11.77940529138823 x[2,1,1] + 11.77940529138823 x[2,1,2]
   + 6.327362962003472 x[2,3,1] + 6.327362962003472 x[2,3,2]
   + 8.317375058923071 x[2,4,1] + 8.317375058923071 x[2,4,2]
   + 3.540413457714997 x[2,5,1] + 3.540413457714997 x[2,5,2]
   + 12.65698929149337 x[2,6,1] + 12.65698929149337 x[2,6,2]
   + 5.562447359351713 x[3,1,1] + 5.562447359351713 x[3,1,2]
   + 6.327362962003472 x[3,2,1] + 6.327362962003472 x[3,2,2]
   + 12.21533172422947 x[3,4,1] + 12.21533172422947 x[3,4,2]
   + 8.627095666842605 x[3,5,1] + 8.627095666842605 x[3,5,2]
   + 6.428629089710375 x[3,6,1] + 6.428629089710375 x[3,6,2]
   + 16.08379167424117 x[4,1,1] + 16.08379167424117 x[4,1,2]
   + 8.317375058923071 x[4,2,1] + 8.317375058923071 x[4,2,2]
   + 12.21533172422947 x[4,3,1] + 12.21533172422947 x[4,3,2]
   + 4.820929129591633 x[4,5,1] + 4.820929129591633 x[4,5,2]
   + 18.25297697251097 x[4,6,1] + 18.25297697251097 x[4,6,2]
   + 13.50428083025146 x[5,1,1] + 13.50428083025146 x[5,1,2]
   + 3.540413457714997 x[5,2,1] + 3.540413457714997 x[5,2,2]
   + 8.627095666842605 x[5,3,1] + 8.627095666842605 x[5,3,2]
   + 4.820929129591633 x[5,4,1] + 4.820929129591633 x[5,4,2]
   + 15.03050653245813 x[5,6,1] + 15.03050653245813 x[5,6,2]
Subject To
 Start_1: x[0,1,1] + x[0,2,1] + x[0,3,1] + x[0,4,1] + x[0,5,1] + x[0,6,1]
   = 1
 Start_2: x[0,1,2] + x[0,2,2] + x[0,3,2] + x[0,4,2] + x[0,5,2] + x[0,6,2]
   = 1
 Finish_1: x[0,6,1] + x[1,6,1] + x[2,6,1] + x[3,6,1] + x[4,6,1] + x[5,6,1]
   = 1
 Finish_2: x[0,6,2] + x[1,6,2] + x[2,6,2] + x[3,6,2] + x[4,6,2] + x[5,6,2]
   = 1
 Visit_1: x[0,1,1] + x[0,1,2] + x[2,1,1] + x[2,1,2] + x[3,1,1] + x[3,1,2]
   + x[4,1,1] + x[4,1,2] + x[5,1,1] + x[5,1,2] = 1
 Visit_2: x[0,2,1] + x[0,2,2] + x[1,2,1] + x[1,2,2] + x[3,2,1] + x[3,2,2]
   + x[4,2,1] + x[4,2,2] + x[5,2,1] + x[5,2,2] = 1
 Visit_3: x[0,3,1] + x[0,3,2] + x[1,3,1] + x[1,3,2] + x[2,3,1] + x[2,3,2]
   + x[4,3,1] + x[4,3,2] + x[5,3,1] + x[5,3,2] = 1
 Visit_4: x[0,4,1] + x[0,4,2] + x[1,4,1] + x[1,4,2] + x[2,4,1] + x[2,4,2]
   + x[3,4,1] + x[3,4,2] + x[5,4,1] + x[5,4,2] = 1
 Visit_5: x[0,5,1] + x[0,5,2] + x[1,5,1] + x[1,5,2] + x[2,5,1] + x[2,5,2]
   + x[3,5,1] + x[3,5,2] + x[4,5,1] + x[4,5,2] = 1
 Leave_1_1: x[0,1,1] - x[1,2,1] - x[1,3,1] - x[1,4,1] - x[1,5,1] - x[1,6,1]
   + x[2,1,1] + x[3,1,1] + x[4,1,1] + x[5,1,1] = 0
 Leave_1_2: x[0,1,2] - x[1,2,2] - x[1,3,2] - x[1,4,2] - x[1,5,2] - x[1,6,2]
   + x[2,1,2] + x[3,1,2] + x[4,1,2] + x[5,1,2] = 0
 Leave_2_1: x[0,2,1] + x[1,2,1] - x[2,1,1] - x[2,3,1] - x[2,4,1] - x[2,5,1]
   - x[2,6,1] + x[3,2,1] + x[4,2,1] + x[5,2,1] = 0
 Leave_2_2: x[0,2,2] + x[1,2,2] - x[2,1,2] - x[2,3,2] - x[2,4,2] - x[2,5,2]
   - x[2,6,2] + x[3,2,2] + x[4,2,2] + x[5,2,2] = 0
 Leave_3_1: x[0,3,1] + x[1,3,1] + x[2,3,1] - x[3,1,1] - x[3,2,1] - x[3,4,1]
   - x[3,5,1] - x[3,6,1] + x[4,3,1] + x[5,3,1] = 0
 Leave_3_2: x[0,3,2] + x[1,3,2] + x[2,3,2] - x[3,1,2] - x[3,2,2] - x[3,4,2]
   - x[3,5,2] - x[3,6,2] + x[4,3,2] + x[5,3,2] = 0
 Leave_4_1: x[0,4,1] + x[1,4,1] + x[2,4,1] + x[3,4,1] - x[4,1,1] - x[4,2,1]
   - x[4,3,1] - x[4,5,1] - x[4,6,1] + x[5,4,1] = 0
 Leave_4_2: x[0,4,2] + x[1,4,2] + x[2,4,2] + x[3,4,2] - x[4,1,2] - x[4,2,2]
   - x[4,3,2] - x[4,5,2] - x[4,6,2] + x[5,4,2] = 0
 Leave_5_1: x[0,5,1] + x[1,5,1] + x[2,5,1] + x[3,5,1] + x[4,5,1] - x[5,1,1]
   - x[5,2,1] - x[5,3,1] - x[5,4,1] - x[5,6,1] = 0
 Leave_5_2: x[0,5,2] + x[1,5,2] + x[2,5,2] + x[3,5,2] + x[4,5,2] - x[5,1,2]
   - x[5,2,2] - x[5,3,2] - x[5,4,2] - x[5,6,2] = 0
 R19: - 17 x[1,2,1] - u[1,1] + u[2,1] >= -10
 R20: - 17 x[1,3,1] - u[1,1] + u[3,1] >= -12
 R21: - 17 x[1,4,1] - u[1,1] + u[4,1] >= -11
 R22: - 17 x[1,5,1] - u[1,1] + u[5,1] >= -9
 R23: - 17 x[2,1,1] + u[1,1] - u[2,1] >= -11
 R24: - 17 x[2,3,1] - u[2,1] + u[3,1] >= -12
 R25: - 17 x[2,4,1] - u[2,1] + u[4,1] >= -11
 R26: - 17 x[2,5,1] - u[2,1] + u[5,1] >= -9
 R27: - 17 x[3,1,1] + u[1,1] - u[3,1] >= -11
 R28: - 17 x[3,2,1] + u[2,1] - u[3,1] >= -10
 R29: - 17 x[3,4,1] - u[3,1] + u[4,1] >= -11
 R30: - 17 x[3,5,1] - u[3,1] + u[5,1] >= -9
 R31: - 17 x[4,1,1] + u[1,1] - u[4,1] >= -11
 R32: - 17 x[4,2,1] + u[2,1] - u[4,1] >= -10
 R33: - 17 x[4,3,1] + u[3,1] - u[4,1] >= -12
 R34: - 17 x[4,5,1] - u[4,1] + u[5,1] >= -9
 R35: - 17 x[5,1,1] + u[1,1] - u[5,1] >= -11
 R36: - 17 x[5,2,1] + u[2,1] - u[5,1] >= -10
 R37: - 17 x[5,3,1] + u[3,1] - u[5,1] >= -12
 R38: - 17 x[5,4,1] + u[4,1] - u[5,1] >= -11
 R39: - 17 x[1,2,2] - u[1,2] + u[2,2] >= -10
 R40: - 17 x[1,3,2] - u[1,2] + u[3,2] >= -12
 R41: - 17 x[1,4,2] - u[1,2] + u[4,2] >= -11
 R42: - 17 x[1,5,2] - u[1,2] + u[5,2] >= -9
 R43: - 17 x[2,1,2] + u[1,2] - u[2,2] >= -11
 R44: - 17 x[2,3,2] - u[2,2] + u[3,2] >= -12
 R45: - 17 x[2,4,2] - u[2,2] + u[4,2] >= -11
 R46: - 17 x[2,5,2] - u[2,2] + u[5,2] >= -9
 R47: - 17 x[3,1,2] + u[1,2] - u[3,2] >= -11
 R48: - 17 x[3,2,2] + u[2,2] - u[3,2] >= -10
 R49: - 17 x[3,4,2] - u[3,2] + u[4,2] >= -11
 R50: - 17 x[3,5,2] - u[3,2] + u[5,2] >= -9
 R51: - 17 x[4,1,2] + u[1,2] - u[4,2] >= -11
 R52: - 17 x[4,2,2] + u[2,2] - u[4,2] >= -10
 R53: - 17 x[4,3,2] + u[3,2] - u[4,2] >= -12
 R54: - 17 x[4,5,2] - u[4,2] + u[5,2] >= -9
 R55: - 17 x[5,1,2] + u[1,2] - u[5,2] >= -11
 R56: - 17 x[5,2,2] + u[2,2] - u[5,2] >= -10
 R57: - 17 x[5,3,2] + u[3,2] - u[5,2] >= -12
 R58: - 17 x[5,4,2] + u[4,2] - u[5,2] >= -11
 R59: u[1,1] >= 6
 R60: u[1,1] <= 17
 R61: u[1,2] >= 6
 R62: u[1,2] <= 17
 R63: u[2,1] >= 7
 R64: u[2,1] <= 17
 R65: u[2,2] >= 7
 R66: u[2,2] <= 17
 R67: u[3,1] >= 5
 R68: u[3,1] <= 17
 R69: u[3,2] >= 5
 R70: u[3,2] <= 17
 R71: u[4,1] >= 6
 R72: u[4,1] <= 17
 R73: u[4,2] >= 6
 R74: u[4,2] <= 17
 R75: u[5,1] >= 8
 R76: u[5,1] <= 17
 R77: u[5,2] >= 8
 R78: u[5,2] <= 17
Bounds
Binaries
 x[0,1,1] x[0,1,2] x[0,2,1] x[0,2,2] x[0,3,1] x[0,3,2] x[0,4,1] x[0,4,2]
 x[0,5,1] x[0,5,2] x[0,6,1] x[0,6,2] x[1,2,1] x[1,2,2] x[1,3,1] x[1,3,2]
 x[1,4,1] x[1,4,2] x[1,5,1] x[1,5,2] x[1,6,1] x[1,6,2] x[2,1,1] x[2,1,2]
 x[2,3,1] x[2,3,2] x[2,4,1] x[2,4,2] x[2,5,1] x[2,5,2] x[2,6,1] x[2,6,2]
 x[3,1,1] x[3,1,2] x[3,2,1] x[3,2,2] x[3,4,1] x[3,4,2] x[3,5,1] x[3,5,2]
 x[3,6,1] x[3,6,2] x[4,1,1] x[4,1,2] x[4,2,1] x[4,2,2] x[4,3,1] x[4,3,2]
 x[4,5,1] x[4,5,2] x[4,6,1] x[4,6,2] x[5,1,1] x[5,1,2] x[5,2,1] x[5,2,2]
 x[5,3,1] x[5,3,2] x[5,4,1] x[5,4,2] x[5,6,1] x[5,6,2]
End
