solutions/n5k2_MTZ.sol
# Objective value = 6.9164886850561373e+01
x[0,1,1] 1
x[0,1,2] 0
x[0,2,1] 0
x[0,2,2] 1
x[0,3,1] 0
x[0,3,2] 0
x[0,4,1] 0
x[0,4,2] 0
x[0,5,1] 0
x[0,5,2] 0
x[0,6,1] 0
x[0,6,2] 0
x[1,2,1] 0
x[1,2,2] 0
x[1,3,1] 0
x[1,3,2] 0
x[1,4,1] 1
x[1,4,2] 0
x[1,5,1] 0
x[1,5,2] 0
x[1,6,1] 0
x[1,6,2] 0
x[2,1,1] 0
x[2,1,2] 0
x[2,3,1] 0
x[2,3,2] 0
x[2,4,1] 0
x[2,4,2] 0
x[2,5,1] 0
x[2,5,2] 1
x[2,6,1] 0
x[2,6,2] 0
x[3,1,1] 0
x[3,1,2] 0
x[3,2,1] 0
x[3,2,2] 0
x[3,4,1] 0
x[3,4,2] 0
x[3,5,1] 0
x[3,5,2] 0
x[3,6,1] 1
x[3,6,2] 0
x[4,1,1] 0
x[4,1,2] 0
x[4,2,1] 0
x[4,2,2] 0
x[4,3,1] 1
x[4,3,2] 0
x[4,5,1] 0
x[4,5,2] 0
x[4,6,1] 0
x[4,6,2] 0
x[5,1,1] 0
x[5,1,2] 0
x[5,2,1] 0
x[5,2,2] 0
x[5,3,1] 0
x[5,3,2] 0
x[5,4,1] 0
x[5,4,2] 0
x[5,6,1] 0
x[5,6,2] 1
u[1,1] 6
u[1,2] 6
u[2,1] 7
u[2,2] 7
u[3,1] 17
u[3,2] 5
u[4,1] 12
u[4,2] 6
u[5,1] 8
u[5,2] 15
